30 
300 
19.1 24.3 0 0
18.2 24 0 -101
12.6 24.9 -20 -104
14.4 28 20 -19
16.9 28.1 20 -21
20.7 28.2 20 -24
12.5 26.6 20 -23
21.8 27.3 -20 -108
12.5 22.6 20 -23
22.5 17 -30 -127
19.9 15 30 -12
14.9 15.1 -30 -74
11.5 18.6 30 -28
12.4 29.8 30 -14
17.8 28.1 30 -27
9.1 29.8 -40 -139
10 32.6 -40 -127
13.9 33.1 -40 -137
19.95 10.3 -40 -81
15.2 8 -40 -64
14.7 31.2 50 -25
7.4 36.5 50 -10
21 25.5 -50 -60
18 25.3 10 -14
19.5 24.7 -10 -113
21.4 21.8 -10 -107
16 21.4 10 -17
18.65 26.2 10 -22
17.9 28.9 -10 -75
14.3 19.9 20 -24
17 19 20 -12
10.8 21 20 -21
15.7 23.7 10 -19
